c 1 _r
c 2 _r_1
c 3 _r_1_2
c 4 _r_1_2_3
c 5 _r_1_2_4
c 6 _r_1_2_4_5
c 7 _r_1_6
c 8 _r_1_6_7
c 9 _r_1_6_8
c 10 _r_1_6_8_9
c 11 _r_1_10
c 12 _r_1_10_11
c 13 _r_1_10_14
c 14 _r_1_15
c 15 _r_1_16
c 16 _r_18
c 17 _r_18_19
c 18 _r_18_21
c 19 _r_22
c 20 _r_22_23
c 21 _r_22_23_26_27
c 22 _r_22_23_26_28
c 23 _r_22_29
c 24 _r_30
c 25 _r_30_31
c 26 _r_30_32
c 27 _r_30_32_33
c 28 _r_30_32_33_34
c 29 _r_30_32_33_34_37_38
c 30 _r_30_32_33_34_37_39
c 31 _r_40
c 32 _r_40_41_42
c 33 _r_40_41_43
c 34 _r_40_41_44
c 35 _r_45
c 36 _r_45_46
c 37 _r_45_46_47
c 38 _r_45_46_48
c 39 _r_45_49
c 40 _r_50
c 41 _r_50_51
c 42 _r_50_52
c 43 _r_53
c 44 _r_53_54_55
c 45 _r_53_54_56
c 46 _r_53_54_57
c 47 _r_58
c 48 _r_58_59
c 49 _r_58_59_60_61
c 50 _r_58_59_60_62
c 51 _r_58_59_60_63
c 52 _r_58_68
c 53 _r_58_68_69_70
c 54 _r_58_68_69_71
c 55 _r_72
c 56 _r_72_73
c 57 _r_72_74
c 58 _r_75
c 59 _r_75_76
c 60 _r_60
p cnf 60 82
1 0
-2 1 0
-16 1 0
-1 16 0
-19 1 0
-1 19 0
-24 1 0
-1 24 0
-31 1 0
-35 1 0
-40 1 0
-43 1 0
-47 1 0
-55 1 0
-58 1 0
-60 1 0
-3 2 0
-7 2 0
-11 2 0
-14 2 0
-15 2 0
-17 16 0
-16 17 0
-18 16 0
-20 19 0
-23 19 0
-19 23 0
-25 24 0
-24 25 0
-26 24 0
-32 31 0
-33 31 0
-34 31 0
-31 32 33 34 0
-36 35 0
-35 36 0
-39 35 0
-41 40 0
-40 41 0
-42 40 0
-44 43 0
-45 43 0
-46 43 0
-43 44 45 46 0
-48 47 0
-47 48 0
-52 47 0
-56 55 0
-55 56 0
-57 55 0
-59 58 0
-4 3 0
-3 4 0
-5 3 0
-8 7 0
-7 8 0
-9 7 0
-12 11 0
-11 12 0
-13 11 0
-21 20 0
-22 20 0
-20 21 22 0
-27 26 0
-37 36 0
-36 37 0
-38 36 0
-49 48 0
-50 48 0
-51 48 0
-48 49 50 51 0
-53 52 0
-54 52 0
-52 53 54 0
-6 5 0
-10 9 0
-28 27 0
-29 28 0
-30 28 0
-28 29 30 0
-29 -30 0
-29 -30 0
